min: 1.0Emax;
1.0Emax >= 1.0E_0_chef;
1.0Emax >= 1.0E_1_chef;
1.0Emax >= 1.0E_2_chef;
1.0Emax >= 1.0E_3_chef;
1.0Emax >= 1.0E_4_chef;
1.0Emax >= 1.0E_5_ovensub1;
1.0Emax >= 1.0E_5_ovensub2;
1.0Emax >= 1.0E_6_ovensub1;
1.0Emax >= 1.0E_6_ovensub2;
1.0Emax >= 1.0E_7_chef;
1.0Emax >= 1.0E_8_chef;
1.0Emax >= 1.0E_9_chef;
1.0Emax >= 1.0E_10_chef;
1.0Emax >= 1.0E_11_hobsub1;
1.0Emax >= 1.0E_11_hobsub2;
1.0Emax >= 1.0E_11_ovensub1;
1.0Emax >= 1.0E_11_ovensub2;
1.0Emax >= 1.0E_12_chef;
1.0Emax >= 1.0E_13_chef;
1.0Emax >= 1.0E_14_hobsub1;
1.0Emax >= 1.0E_14_hobsub2;
1.0Emax >= 1.0E_14_ovensub1;
1.0Emax >= 1.0E_14_ovensub2;
1.0Emax >= 1.0E_15_chef;
1.0E_0_chef >= 10.0;
1.0E_1_chef >= 10.0;
1.0E_2_chef >= 10.0;
1.0E_3_chef >= 7.0;
1.0E_4_chef >= 7.0;
1.0E_5_ovensub1 >= 3600.0X_5_ovensub1;
1.0E_5_ovensub2 >= 3600.0X_5_ovensub2;
1.0E_6_ovensub1 >= 1500.0X_6_ovensub1;
1.0E_6_ovensub2 >= 1500.0X_6_ovensub2;
1.0E_7_chef >= 5.0;
1.0E_8_chef >= 5.0;
1.0E_9_chef >= 10.0;
1.0E_10_chef >= 10.0;
1.0E_11_hobsub1 >= 60.0X_11_hobsub1;
1.0E_11_hobsub2 >= 60.0X_11_hobsub2;
1.0E_11_ovensub1 >= 60.0X_11_ovensub1;
1.0E_11_ovensub2 >= 60.0X_11_ovensub2;
1.0E_12_chef >= 7.0;
1.0E_13_chef >= 7.0;
1.0E_14_hobsub1 >= 600.0X_14_hobsub1;
1.0E_14_hobsub2 >= 600.0X_14_hobsub2;
1.0E_14_ovensub1 >= 600.0X_14_ovensub1;
1.0E_14_ovensub2 >= 600.0X_14_ovensub2;
1.0E_15_chef >= 5.0;
1.0E_3_chef >= 1.0E_1_chef + 7.0;
1.0E_3_chef >= 1.0E_2_chef + 7.0;
1.0E_4_chef >= 1.0E_0_chef + 7.0;
1.0E_4_chef >= 1.0E_3_chef + 7.0;
1.0E_5_ovensub1 >= 1.0E_4_chef + 3600.0X_5_ovensub1;
1.0E_5_ovensub2 >= 1.0E_4_chef + 3600.0X_5_ovensub2;
1.0E_6_ovensub1 >= 1.0E_5_ovensub1 + 1500.0X_6_ovensub1;
1.0E_6_ovensub1 >= 1.0E_5_ovensub2 + 1500.0X_6_ovensub1;
1.0E_6_ovensub2 >= 1.0E_5_ovensub1 + 1500.0X_6_ovensub2;
1.0E_6_ovensub2 >= 1.0E_5_ovensub2 + 1500.0X_6_ovensub2;
1.0E_7_chef >= 1.0E_6_ovensub1 + 5.0;
1.0E_7_chef >= 1.0E_6_ovensub2 + 5.0;
1.0E_8_chef >= 1.0E_6_ovensub1 + 5.0;
1.0E_8_chef >= 1.0E_6_ovensub2 + 5.0;
1.0E_11_hobsub1 >= 1.0E_8_chef + 60.0X_11_hobsub1;
1.0E_11_hobsub2 >= 1.0E_8_chef + 60.0X_11_hobsub2;
1.0E_11_ovensub1 >= 1.0E_8_chef + 60.0X_11_ovensub1;
1.0E_11_ovensub2 >= 1.0E_8_chef + 60.0X_11_ovensub2;
1.0E_12_chef >= 1.0E_10_chef + 7.0;
1.0E_12_chef >= 1.0E_11_hobsub1 + 7.0;
1.0E_12_chef >= 1.0E_11_hobsub2 + 7.0;
1.0E_12_chef >= 1.0E_11_ovensub1 + 7.0;
1.0E_12_chef >= 1.0E_11_ovensub2 + 7.0;
1.0E_13_chef >= 1.0E_9_chef + 7.0;
1.0E_13_chef >= 1.0E_12_chef + 7.0;
1.0E_14_hobsub1 >= 1.0E_13_chef + 600.0X_14_hobsub1;
1.0E_14_hobsub2 >= 1.0E_13_chef + 600.0X_14_hobsub2;
1.0E_14_ovensub1 >= 1.0E_13_chef + 600.0X_14_ovensub1;
1.0E_14_ovensub2 >= 1.0E_13_chef + 600.0X_14_ovensub2;
1.0E_15_chef >= 1.0E_7_chef + 5.0;
1.0E_15_chef >= 1.0E_14_hobsub1 + 5.0;
1.0E_15_chef >= 1.0E_14_hobsub2 + 5.0;
1.0E_15_chef >= 1.0E_14_ovensub1 + 5.0;
1.0E_15_chef >= 1.0E_14_ovensub2 + 5.0;
1.0X_5_ovensub1 + 1.0X_5_ovensub2 = 1.0;
1.0X_6_ovensub1 + 1.0X_6_ovensub2 = 1.0;
1.0X_11_hobsub1 + 1.0X_11_hobsub2 + 1.0X_11_ovensub1 + 1.0X_11_ovensub2 = 1.0;
1.0X_14_hobsub1 + 1.0X_14_hobsub2 + 1.0X_14_ovensub1 + 1.0X_14_ovensub2 = 1.0;
1.0E_0_chef - 1.0E_1_chef >= 10.0 - 9453.0Y_0_chef_1;
1.0E_0_chef - 1.0E_2_chef >= 10.0 - 9453.0Y_0_chef_2;
1.0E_0_chef - 1.0E_3_chef >= 10.0 - 9453.0Y_0_chef_3;
1.0E_0_chef - 1.0E_4_chef >= 10.0 - 9453.0Y_0_chef_4;
1.0E_0_chef - 1.0E_7_chef >= 10.0 - 9453.0Y_0_chef_7;
1.0E_0_chef - 1.0E_8_chef >= 10.0 - 9453.0Y_0_chef_8;
1.0E_0_chef - 1.0E_9_chef >= 10.0 - 9453.0Y_0_chef_9;
1.0E_0_chef - 1.0E_10_chef >= 10.0 - 9453.0Y_0_chef_10;
1.0E_0_chef - 1.0E_12_chef >= 10.0 - 9453.0Y_0_chef_12;
1.0E_0_chef - 1.0E_13_chef >= 10.0 - 9453.0Y_0_chef_13;
1.0E_0_chef - 1.0E_15_chef >= 10.0 - 9453.0Y_0_chef_15;
1.0E_1_chef - 1.0E_0_chef >= 10.0 - 9453.0Y_1_chef_0;
1.0E_1_chef - 1.0E_2_chef >= 10.0 - 9453.0Y_1_chef_2;
1.0E_1_chef - 1.0E_3_chef >= 10.0 - 9453.0Y_1_chef_3;
1.0E_1_chef - 1.0E_4_chef >= 10.0 - 9453.0Y_1_chef_4;
1.0E_1_chef - 1.0E_7_chef >= 10.0 - 9453.0Y_1_chef_7;
1.0E_1_chef - 1.0E_8_chef >= 10.0 - 9453.0Y_1_chef_8;
1.0E_1_chef - 1.0E_9_chef >= 10.0 - 9453.0Y_1_chef_9;
1.0E_1_chef - 1.0E_10_chef >= 10.0 - 9453.0Y_1_chef_10;
1.0E_1_chef - 1.0E_12_chef >= 10.0 - 9453.0Y_1_chef_12;
1.0E_1_chef - 1.0E_13_chef >= 10.0 - 9453.0Y_1_chef_13;
1.0E_1_chef - 1.0E_15_chef >= 10.0 - 9453.0Y_1_chef_15;
1.0E_2_chef - 1.0E_0_chef >= 10.0 - 9453.0Y_2_chef_0;
1.0E_2_chef - 1.0E_1_chef >= 10.0 - 9453.0Y_2_chef_1;
1.0E_2_chef - 1.0E_3_chef >= 10.0 - 9453.0Y_2_chef_3;
1.0E_2_chef - 1.0E_4_chef >= 10.0 - 9453.0Y_2_chef_4;
1.0E_2_chef - 1.0E_7_chef >= 10.0 - 9453.0Y_2_chef_7;
1.0E_2_chef - 1.0E_8_chef >= 10.0 - 9453.0Y_2_chef_8;
1.0E_2_chef - 1.0E_9_chef >= 10.0 - 9453.0Y_2_chef_9;
1.0E_2_chef - 1.0E_10_chef >= 10.0 - 9453.0Y_2_chef_10;
1.0E_2_chef - 1.0E_12_chef >= 10.0 - 9453.0Y_2_chef_12;
1.0E_2_chef - 1.0E_13_chef >= 10.0 - 9453.0Y_2_chef_13;
1.0E_2_chef - 1.0E_15_chef >= 10.0 - 9453.0Y_2_chef_15;
1.0E_3_chef - 1.0E_0_chef >= 7.0 - 9453.0Y_3_chef_0;
1.0E_3_chef - 1.0E_1_chef >= 7.0 - 9453.0Y_3_chef_1;
1.0E_3_chef - 1.0E_2_chef >= 7.0 - 9453.0Y_3_chef_2;
1.0E_3_chef - 1.0E_4_chef >= 7.0 - 9453.0Y_3_chef_4;
1.0E_3_chef - 1.0E_7_chef >= 7.0 - 9453.0Y_3_chef_7;
1.0E_3_chef - 1.0E_8_chef >= 7.0 - 9453.0Y_3_chef_8;
1.0E_3_chef - 1.0E_9_chef >= 7.0 - 9453.0Y_3_chef_9;
1.0E_3_chef - 1.0E_10_chef >= 7.0 - 9453.0Y_3_chef_10;
1.0E_3_chef - 1.0E_12_chef >= 7.0 - 9453.0Y_3_chef_12;
1.0E_3_chef - 1.0E_13_chef >= 7.0 - 9453.0Y_3_chef_13;
1.0E_3_chef - 1.0E_15_chef >= 7.0 - 9453.0Y_3_chef_15;
1.0E_4_chef - 1.0E_0_chef >= 7.0 - 9453.0Y_4_chef_0;
1.0E_4_chef - 1.0E_1_chef >= 7.0 - 9453.0Y_4_chef_1;
1.0E_4_chef - 1.0E_2_chef >= 7.0 - 9453.0Y_4_chef_2;
1.0E_4_chef - 1.0E_3_chef >= 7.0 - 9453.0Y_4_chef_3;
1.0E_4_chef - 1.0E_7_chef >= 7.0 - 9453.0Y_4_chef_7;
1.0E_4_chef - 1.0E_8_chef >= 7.0 - 9453.0Y_4_chef_8;
1.0E_4_chef - 1.0E_9_chef >= 7.0 - 9453.0Y_4_chef_9;
1.0E_4_chef - 1.0E_10_chef >= 7.0 - 9453.0Y_4_chef_10;
1.0E_4_chef - 1.0E_12_chef >= 7.0 - 9453.0Y_4_chef_12;
1.0E_4_chef - 1.0E_13_chef >= 7.0 - 9453.0Y_4_chef_13;
1.0E_4_chef - 1.0E_15_chef >= 7.0 - 9453.0Y_4_chef_15;
1.0E_5_ovensub1 - 1.0E_6_ovensub1 >= 3600.0X_5_ovensub1 - 9453.0Y_5_ovensub1_6;
1.0E_5_ovensub2 - 1.0E_6_ovensub2 >= 3600.0X_5_ovensub2 - 9453.0Y_5_ovensub2_6;
1.0E_5_ovensub1 - 1.0E_11_ovensub1 >= 3600.0X_5_ovensub1 - 9453.0Y_5_ovensub1_11;
1.0E_5_ovensub2 - 1.0E_11_ovensub2 >= 3600.0X_5_ovensub2 - 9453.0Y_5_ovensub2_11;
1.0E_5_ovensub1 - 1.0E_14_ovensub1 >= 3600.0X_5_ovensub1 - 9453.0Y_5_ovensub1_14;
1.0E_5_ovensub2 - 1.0E_14_ovensub2 >= 3600.0X_5_ovensub2 - 9453.0Y_5_ovensub2_14;
1.0E_6_ovensub1 - 1.0E_5_ovensub1 >= 1500.0X_6_ovensub1 - 9453.0Y_6_ovensub1_5;
1.0E_6_ovensub2 - 1.0E_5_ovensub2 >= 1500.0X_6_ovensub2 - 9453.0Y_6_ovensub2_5;
1.0E_6_ovensub1 - 1.0E_11_ovensub1 >= 1500.0X_6_ovensub1 - 9453.0Y_6_ovensub1_11;
1.0E_6_ovensub2 - 1.0E_11_ovensub2 >= 1500.0X_6_ovensub2 - 9453.0Y_6_ovensub2_11;
1.0E_6_ovensub1 - 1.0E_14_ovensub1 >= 1500.0X_6_ovensub1 - 9453.0Y_6_ovensub1_14;
1.0E_6_ovensub2 - 1.0E_14_ovensub2 >= 1500.0X_6_ovensub2 - 9453.0Y_6_ovensub2_14;
1.0E_7_chef - 1.0E_0_chef >= 5.0 - 9453.0Y_7_chef_0;
1.0E_7_chef - 1.0E_1_chef >= 5.0 - 9453.0Y_7_chef_1;
1.0E_7_chef - 1.0E_2_chef >= 5.0 - 9453.0Y_7_chef_2;
1.0E_7_chef - 1.0E_3_chef >= 5.0 - 9453.0Y_7_chef_3;
1.0E_7_chef - 1.0E_4_chef >= 5.0 - 9453.0Y_7_chef_4;
1.0E_7_chef - 1.0E_8_chef >= 5.0 - 9453.0Y_7_chef_8;
1.0E_7_chef - 1.0E_9_chef >= 5.0 - 9453.0Y_7_chef_9;
1.0E_7_chef - 1.0E_10_chef >= 5.0 - 9453.0Y_7_chef_10;
1.0E_7_chef - 1.0E_12_chef >= 5.0 - 9453.0Y_7_chef_12;
1.0E_7_chef - 1.0E_13_chef >= 5.0 - 9453.0Y_7_chef_13;
1.0E_7_chef - 1.0E_15_chef >= 5.0 - 9453.0Y_7_chef_15;
1.0E_8_chef - 1.0E_0_chef >= 5.0 - 9453.0Y_8_chef_0;
1.0E_8_chef - 1.0E_1_chef >= 5.0 - 9453.0Y_8_chef_1;
1.0E_8_chef - 1.0E_2_chef >= 5.0 - 9453.0Y_8_chef_2;
1.0E_8_chef - 1.0E_3_chef >= 5.0 - 9453.0Y_8_chef_3;
1.0E_8_chef - 1.0E_4_chef >= 5.0 - 9453.0Y_8_chef_4;
1.0E_8_chef - 1.0E_7_chef >= 5.0 - 9453.0Y_8_chef_7;
1.0E_8_chef - 1.0E_9_chef >= 5.0 - 9453.0Y_8_chef_9;
1.0E_8_chef - 1.0E_10_chef >= 5.0 - 9453.0Y_8_chef_10;
1.0E_8_chef - 1.0E_12_chef >= 5.0 - 9453.0Y_8_chef_12;
1.0E_8_chef - 1.0E_13_chef >= 5.0 - 9453.0Y_8_chef_13;
1.0E_8_chef - 1.0E_15_chef >= 5.0 - 9453.0Y_8_chef_15;
1.0E_9_chef - 1.0E_0_chef >= 10.0 - 9453.0Y_9_chef_0;
1.0E_9_chef - 1.0E_1_chef >= 10.0 - 9453.0Y_9_chef_1;
1.0E_9_chef - 1.0E_2_chef >= 10.0 - 9453.0Y_9_chef_2;
1.0E_9_chef - 1.0E_3_chef >= 10.0 - 9453.0Y_9_chef_3;
1.0E_9_chef - 1.0E_4_chef >= 10.0 - 9453.0Y_9_chef_4;
1.0E_9_chef - 1.0E_7_chef >= 10.0 - 9453.0Y_9_chef_7;
1.0E_9_chef - 1.0E_8_chef >= 10.0 - 9453.0Y_9_chef_8;
1.0E_9_chef - 1.0E_10_chef >= 10.0 - 9453.0Y_9_chef_10;
1.0E_9_chef - 1.0E_12_chef >= 10.0 - 9453.0Y_9_chef_12;
1.0E_9_chef - 1.0E_13_chef >= 10.0 - 9453.0Y_9_chef_13;
1.0E_9_chef - 1.0E_15_chef >= 10.0 - 9453.0Y_9_chef_15;
1.0E_10_chef - 1.0E_0_chef >= 10.0 - 9453.0Y_10_chef_0;
1.0E_10_chef - 1.0E_1_chef >= 10.0 - 9453.0Y_10_chef_1;
1.0E_10_chef - 1.0E_2_chef >= 10.0 - 9453.0Y_10_chef_2;
1.0E_10_chef - 1.0E_3_chef >= 10.0 - 9453.0Y_10_chef_3;
1.0E_10_chef - 1.0E_4_chef >= 10.0 - 9453.0Y_10_chef_4;
1.0E_10_chef - 1.0E_7_chef >= 10.0 - 9453.0Y_10_chef_7;
1.0E_10_chef - 1.0E_8_chef >= 10.0 - 9453.0Y_10_chef_8;
1.0E_10_chef - 1.0E_9_chef >= 10.0 - 9453.0Y_10_chef_9;
1.0E_10_chef - 1.0E_12_chef >= 10.0 - 9453.0Y_10_chef_12;
1.0E_10_chef - 1.0E_13_chef >= 10.0 - 9453.0Y_10_chef_13;
1.0E_10_chef - 1.0E_15_chef >= 10.0 - 9453.0Y_10_chef_15;
1.0E_11_ovensub1 - 1.0E_5_ovensub1 >= 60.0X_11_ovensub1 - 9453.0Y_11_ovensub1_5;
1.0E_11_ovensub2 - 1.0E_5_ovensub2 >= 60.0X_11_ovensub2 - 9453.0Y_11_ovensub2_5;
1.0E_11_ovensub1 - 1.0E_6_ovensub1 >= 60.0X_11_ovensub1 - 9453.0Y_11_ovensub1_6;
1.0E_11_ovensub2 - 1.0E_6_ovensub2 >= 60.0X_11_ovensub2 - 9453.0Y_11_ovensub2_6;
1.0E_11_hobsub1 - 1.0E_14_hobsub1 >= 60.0X_11_hobsub1 - 9453.0Y_11_hobsub1_14;
1.0E_11_hobsub2 - 1.0E_14_hobsub2 >= 60.0X_11_hobsub2 - 9453.0Y_11_hobsub2_14;
1.0E_11_ovensub1 - 1.0E_14_ovensub1 >= 60.0X_11_ovensub1 - 9453.0Y_11_ovensub1_14;
1.0E_11_ovensub2 - 1.0E_14_ovensub2 >= 60.0X_11_ovensub2 - 9453.0Y_11_ovensub2_14;
1.0E_12_chef - 1.0E_0_chef >= 7.0 - 9453.0Y_12_chef_0;
1.0E_12_chef - 1.0E_1_chef >= 7.0 - 9453.0Y_12_chef_1;
1.0E_12_chef - 1.0E_2_chef >= 7.0 - 9453.0Y_12_chef_2;
1.0E_12_chef - 1.0E_3_chef >= 7.0 - 9453.0Y_12_chef_3;
1.0E_12_chef - 1.0E_4_chef >= 7.0 - 9453.0Y_12_chef_4;
1.0E_12_chef - 1.0E_7_chef >= 7.0 - 9453.0Y_12_chef_7;
1.0E_12_chef - 1.0E_8_chef >= 7.0 - 9453.0Y_12_chef_8;
1.0E_12_chef - 1.0E_9_chef >= 7.0 - 9453.0Y_12_chef_9;
1.0E_12_chef - 1.0E_10_chef >= 7.0 - 9453.0Y_12_chef_10;
1.0E_12_chef - 1.0E_13_chef >= 7.0 - 9453.0Y_12_chef_13;
1.0E_12_chef - 1.0E_15_chef >= 7.0 - 9453.0Y_12_chef_15;
1.0E_13_chef - 1.0E_0_chef >= 7.0 - 9453.0Y_13_chef_0;
1.0E_13_chef - 1.0E_1_chef >= 7.0 - 9453.0Y_13_chef_1;
1.0E_13_chef - 1.0E_2_chef >= 7.0 - 9453.0Y_13_chef_2;
1.0E_13_chef - 1.0E_3_chef >= 7.0 - 9453.0Y_13_chef_3;
1.0E_13_chef - 1.0E_4_chef >= 7.0 - 9453.0Y_13_chef_4;
1.0E_13_chef - 1.0E_7_chef >= 7.0 - 9453.0Y_13_chef_7;
1.0E_13_chef - 1.0E_8_chef >= 7.0 - 9453.0Y_13_chef_8;
1.0E_13_chef - 1.0E_9_chef >= 7.0 - 9453.0Y_13_chef_9;
1.0E_13_chef - 1.0E_10_chef >= 7.0 - 9453.0Y_13_chef_10;
1.0E_13_chef - 1.0E_12_chef >= 7.0 - 9453.0Y_13_chef_12;
1.0E_13_chef - 1.0E_15_chef >= 7.0 - 9453.0Y_13_chef_15;
1.0E_14_ovensub1 - 1.0E_5_ovensub1 >= 600.0X_14_ovensub1 - 9453.0Y_14_ovensub1_5;
1.0E_14_ovensub2 - 1.0E_5_ovensub2 >= 600.0X_14_ovensub2 - 9453.0Y_14_ovensub2_5;
1.0E_14_ovensub1 - 1.0E_6_ovensub1 >= 600.0X_14_ovensub1 - 9453.0Y_14_ovensub1_6;
1.0E_14_ovensub2 - 1.0E_6_ovensub2 >= 600.0X_14_ovensub2 - 9453.0Y_14_ovensub2_6;
1.0E_14_hobsub1 - 1.0E_11_hobsub1 >= 600.0X_14_hobsub1 - 9453.0Y_14_hobsub1_11;
1.0E_14_hobsub2 - 1.0E_11_hobsub2 >= 600.0X_14_hobsub2 - 9453.0Y_14_hobsub2_11;
1.0E_14_ovensub1 - 1.0E_11_ovensub1 >= 600.0X_14_ovensub1 - 9453.0Y_14_ovensub1_11;
1.0E_14_ovensub2 - 1.0E_11_ovensub2 >= 600.0X_14_ovensub2 - 9453.0Y_14_ovensub2_11;
1.0E_15_chef - 1.0E_0_chef >= 5.0 - 9453.0Y_15_chef_0;
1.0E_15_chef - 1.0E_1_chef >= 5.0 - 9453.0Y_15_chef_1;
1.0E_15_chef - 1.0E_2_chef >= 5.0 - 9453.0Y_15_chef_2;
1.0E_15_chef - 1.0E_3_chef >= 5.0 - 9453.0Y_15_chef_3;
1.0E_15_chef - 1.0E_4_chef >= 5.0 - 9453.0Y_15_chef_4;
1.0E_15_chef - 1.0E_7_chef >= 5.0 - 9453.0Y_15_chef_7;
1.0E_15_chef - 1.0E_8_chef >= 5.0 - 9453.0Y_15_chef_8;
1.0E_15_chef - 1.0E_9_chef >= 5.0 - 9453.0Y_15_chef_9;
1.0E_15_chef - 1.0E_10_chef >= 5.0 - 9453.0Y_15_chef_10;
1.0E_15_chef - 1.0E_12_chef >= 5.0 - 9453.0Y_15_chef_12;
1.0E_15_chef - 1.0E_13_chef >= 5.0 - 9453.0Y_15_chef_13;
1.0E_1_chef - 1.0E_0_chef >= 10.0 - 9453.0 + 9453.0Y_0_chef_1;
1.0E_2_chef - 1.0E_0_chef >= 10.0 - 9453.0 + 9453.0Y_0_chef_2;
1.0E_3_chef - 1.0E_0_chef >= 7.0 - 9453.0 + 9453.0Y_0_chef_3;
1.0E_4_chef - 1.0E_0_chef >= 7.0 - 9453.0 + 9453.0Y_0_chef_4;
1.0E_7_chef - 1.0E_0_chef >= 5.0 - 9453.0 + 9453.0Y_0_chef_7;
1.0E_8_chef - 1.0E_0_chef >= 5.0 - 9453.0 + 9453.0Y_0_chef_8;
1.0E_9_chef - 1.0E_0_chef >= 10.0 - 9453.0 + 9453.0Y_0_chef_9;
1.0E_10_chef - 1.0E_0_chef >= 10.0 - 9453.0 + 9453.0Y_0_chef_10;
1.0E_12_chef - 1.0E_0_chef >= 7.0 - 9453.0 + 9453.0Y_0_chef_12;
1.0E_13_chef - 1.0E_0_chef >= 7.0 - 9453.0 + 9453.0Y_0_chef_13;
1.0E_15_chef - 1.0E_0_chef >= 5.0 - 9453.0 + 9453.0Y_0_chef_15;
1.0E_0_chef - 1.0E_1_chef >= 10.0 - 9453.0 + 9453.0Y_1_chef_0;
1.0E_2_chef - 1.0E_1_chef >= 10.0 - 9453.0 + 9453.0Y_1_chef_2;
1.0E_3_chef - 1.0E_1_chef >= 7.0 - 9453.0 + 9453.0Y_1_chef_3;
1.0E_4_chef - 1.0E_1_chef >= 7.0 - 9453.0 + 9453.0Y_1_chef_4;
1.0E_7_chef - 1.0E_1_chef >= 5.0 - 9453.0 + 9453.0Y_1_chef_7;
1.0E_8_chef - 1.0E_1_chef >= 5.0 - 9453.0 + 9453.0Y_1_chef_8;
1.0E_9_chef - 1.0E_1_chef >= 10.0 - 9453.0 + 9453.0Y_1_chef_9;
1.0E_10_chef - 1.0E_1_chef >= 10.0 - 9453.0 + 9453.0Y_1_chef_10;
1.0E_12_chef - 1.0E_1_chef >= 7.0 - 9453.0 + 9453.0Y_1_chef_12;
1.0E_13_chef - 1.0E_1_chef >= 7.0 - 9453.0 + 9453.0Y_1_chef_13;
1.0E_15_chef - 1.0E_1_chef >= 5.0 - 9453.0 + 9453.0Y_1_chef_15;
1.0E_0_chef - 1.0E_2_chef >= 10.0 - 9453.0 + 9453.0Y_2_chef_0;
1.0E_1_chef - 1.0E_2_chef >= 10.0 - 9453.0 + 9453.0Y_2_chef_1;
1.0E_3_chef - 1.0E_2_chef >= 7.0 - 9453.0 + 9453.0Y_2_chef_3;
1.0E_4_chef - 1.0E_2_chef >= 7.0 - 9453.0 + 9453.0Y_2_chef_4;
1.0E_7_chef - 1.0E_2_chef >= 5.0 - 9453.0 + 9453.0Y_2_chef_7;
1.0E_8_chef - 1.0E_2_chef >= 5.0 - 9453.0 + 9453.0Y_2_chef_8;
1.0E_9_chef - 1.0E_2_chef >= 10.0 - 9453.0 + 9453.0Y_2_chef_9;
1.0E_10_chef - 1.0E_2_chef >= 10.0 - 9453.0 + 9453.0Y_2_chef_10;
1.0E_12_chef - 1.0E_2_chef >= 7.0 - 9453.0 + 9453.0Y_2_chef_12;
1.0E_13_chef - 1.0E_2_chef >= 7.0 - 9453.0 + 9453.0Y_2_chef_13;
1.0E_15_chef - 1.0E_2_chef >= 5.0 - 9453.0 + 9453.0Y_2_chef_15;
1.0E_0_chef - 1.0E_3_chef >= 10.0 - 9453.0 + 9453.0Y_3_chef_0;
1.0E_1_chef - 1.0E_3_chef >= 10.0 - 9453.0 + 9453.0Y_3_chef_1;
1.0E_2_chef - 1.0E_3_chef >= 10.0 - 9453.0 + 9453.0Y_3_chef_2;
1.0E_4_chef - 1.0E_3_chef >= 7.0 - 9453.0 + 9453.0Y_3_chef_4;
1.0E_7_chef - 1.0E_3_chef >= 5.0 - 9453.0 + 9453.0Y_3_chef_7;
1.0E_8_chef - 1.0E_3_chef >= 5.0 - 9453.0 + 9453.0Y_3_chef_8;
1.0E_9_chef - 1.0E_3_chef >= 10.0 - 9453.0 + 9453.0Y_3_chef_9;
1.0E_10_chef - 1.0E_3_chef >= 10.0 - 9453.0 + 9453.0Y_3_chef_10;
1.0E_12_chef - 1.0E_3_chef >= 7.0 - 9453.0 + 9453.0Y_3_chef_12;
1.0E_13_chef - 1.0E_3_chef >= 7.0 - 9453.0 + 9453.0Y_3_chef_13;
1.0E_15_chef - 1.0E_3_chef >= 5.0 - 9453.0 + 9453.0Y_3_chef_15;
1.0E_0_chef - 1.0E_4_chef >= 10.0 - 9453.0 + 9453.0Y_4_chef_0;
1.0E_1_chef - 1.0E_4_chef >= 10.0 - 9453.0 + 9453.0Y_4_chef_1;
1.0E_2_chef - 1.0E_4_chef >= 10.0 - 9453.0 + 9453.0Y_4_chef_2;
1.0E_3_chef - 1.0E_4_chef >= 7.0 - 9453.0 + 9453.0Y_4_chef_3;
1.0E_7_chef - 1.0E_4_chef >= 5.0 - 9453.0 + 9453.0Y_4_chef_7;
1.0E_8_chef - 1.0E_4_chef >= 5.0 - 9453.0 + 9453.0Y_4_chef_8;
1.0E_9_chef - 1.0E_4_chef >= 10.0 - 9453.0 + 9453.0Y_4_chef_9;
1.0E_10_chef - 1.0E_4_chef >= 10.0 - 9453.0 + 9453.0Y_4_chef_10;
1.0E_12_chef - 1.0E_4_chef >= 7.0 - 9453.0 + 9453.0Y_4_chef_12;
1.0E_13_chef - 1.0E_4_chef >= 7.0 - 9453.0 + 9453.0Y_4_chef_13;
1.0E_15_chef - 1.0E_4_chef >= 5.0 - 9453.0 + 9453.0Y_4_chef_15;
1.0E_6_ovensub1 - 1.0E_5_ovensub1 >= 1500.0X_5_ovensub1 - 9453.0 + 9453.0Y_5_ovensub1_6;
1.0E_6_ovensub2 - 1.0E_5_ovensub2 >= 1500.0X_5_ovensub2 - 9453.0 + 9453.0Y_5_ovensub2_6;
1.0E_11_ovensub1 - 1.0E_5_ovensub1 >= 60.0X_5_ovensub1 - 9453.0 + 9453.0Y_5_ovensub1_11;
1.0E_11_ovensub2 - 1.0E_5_ovensub2 >= 60.0X_5_ovensub2 - 9453.0 + 9453.0Y_5_ovensub2_11;
1.0E_14_ovensub1 - 1.0E_5_ovensub1 >= 600.0X_5_ovensub1 - 9453.0 + 9453.0Y_5_ovensub1_14;
1.0E_14_ovensub2 - 1.0E_5_ovensub2 >= 600.0X_5_ovensub2 - 9453.0 + 9453.0Y_5_ovensub2_14;
1.0E_5_ovensub1 - 1.0E_6_ovensub1 >= 3600.0X_6_ovensub1 - 9453.0 + 9453.0Y_6_ovensub1_5;
1.0E_5_ovensub2 - 1.0E_6_ovensub2 >= 3600.0X_6_ovensub2 - 9453.0 + 9453.0Y_6_ovensub2_5;
1.0E_11_ovensub1 - 1.0E_6_ovensub1 >= 60.0X_6_ovensub1 - 9453.0 + 9453.0Y_6_ovensub1_11;
1.0E_11_ovensub2 - 1.0E_6_ovensub2 >= 60.0X_6_ovensub2 - 9453.0 + 9453.0Y_6_ovensub2_11;
1.0E_14_ovensub1 - 1.0E_6_ovensub1 >= 600.0X_6_ovensub1 - 9453.0 + 9453.0Y_6_ovensub1_14;
1.0E_14_ovensub2 - 1.0E_6_ovensub2 >= 600.0X_6_ovensub2 - 9453.0 + 9453.0Y_6_ovensub2_14;
1.0E_0_chef - 1.0E_7_chef >= 10.0 - 9453.0 + 9453.0Y_7_chef_0;
1.0E_1_chef - 1.0E_7_chef >= 10.0 - 9453.0 + 9453.0Y_7_chef_1;
1.0E_2_chef - 1.0E_7_chef >= 10.0 - 9453.0 + 9453.0Y_7_chef_2;
1.0E_3_chef - 1.0E_7_chef >= 7.0 - 9453.0 + 9453.0Y_7_chef_3;
1.0E_4_chef - 1.0E_7_chef >= 7.0 - 9453.0 + 9453.0Y_7_chef_4;
1.0E_8_chef - 1.0E_7_chef >= 5.0 - 9453.0 + 9453.0Y_7_chef_8;
1.0E_9_chef - 1.0E_7_chef >= 10.0 - 9453.0 + 9453.0Y_7_chef_9;
1.0E_10_chef - 1.0E_7_chef >= 10.0 - 9453.0 + 9453.0Y_7_chef_10;
1.0E_12_chef - 1.0E_7_chef >= 7.0 - 9453.0 + 9453.0Y_7_chef_12;
1.0E_13_chef - 1.0E_7_chef >= 7.0 - 9453.0 + 9453.0Y_7_chef_13;
1.0E_15_chef - 1.0E_7_chef >= 5.0 - 9453.0 + 9453.0Y_7_chef_15;
1.0E_0_chef - 1.0E_8_chef >= 10.0 - 9453.0 + 9453.0Y_8_chef_0;
1.0E_1_chef - 1.0E_8_chef >= 10.0 - 9453.0 + 9453.0Y_8_chef_1;
1.0E_2_chef - 1.0E_8_chef >= 10.0 - 9453.0 + 9453.0Y_8_chef_2;
1.0E_3_chef - 1.0E_8_chef >= 7.0 - 9453.0 + 9453.0Y_8_chef_3;
1.0E_4_chef - 1.0E_8_chef >= 7.0 - 9453.0 + 9453.0Y_8_chef_4;
1.0E_7_chef - 1.0E_8_chef >= 5.0 - 9453.0 + 9453.0Y_8_chef_7;
1.0E_9_chef - 1.0E_8_chef >= 10.0 - 9453.0 + 9453.0Y_8_chef_9;
1.0E_10_chef - 1.0E_8_chef >= 10.0 - 9453.0 + 9453.0Y_8_chef_10;
1.0E_12_chef - 1.0E_8_chef >= 7.0 - 9453.0 + 9453.0Y_8_chef_12;
1.0E_13_chef - 1.0E_8_chef >= 7.0 - 9453.0 + 9453.0Y_8_chef_13;
1.0E_15_chef - 1.0E_8_chef >= 5.0 - 9453.0 + 9453.0Y_8_chef_15;
1.0E_0_chef - 1.0E_9_chef >= 10.0 - 9453.0 + 9453.0Y_9_chef_0;
1.0E_1_chef - 1.0E_9_chef >= 10.0 - 9453.0 + 9453.0Y_9_chef_1;
1.0E_2_chef - 1.0E_9_chef >= 10.0 - 9453.0 + 9453.0Y_9_chef_2;
1.0E_3_chef - 1.0E_9_chef >= 7.0 - 9453.0 + 9453.0Y_9_chef_3;
1.0E_4_chef - 1.0E_9_chef >= 7.0 - 9453.0 + 9453.0Y_9_chef_4;
1.0E_7_chef - 1.0E_9_chef >= 5.0 - 9453.0 + 9453.0Y_9_chef_7;
1.0E_8_chef - 1.0E_9_chef >= 5.0 - 9453.0 + 9453.0Y_9_chef_8;
1.0E_10_chef - 1.0E_9_chef >= 10.0 - 9453.0 + 9453.0Y_9_chef_10;
1.0E_12_chef - 1.0E_9_chef >= 7.0 - 9453.0 + 9453.0Y_9_chef_12;
1.0E_13_chef - 1.0E_9_chef >= 7.0 - 9453.0 + 9453.0Y_9_chef_13;
1.0E_15_chef - 1.0E_9_chef >= 5.0 - 9453.0 + 9453.0Y_9_chef_15;
1.0E_0_chef - 1.0E_10_chef >= 10.0 - 9453.0 + 9453.0Y_10_chef_0;
1.0E_1_chef - 1.0E_10_chef >= 10.0 - 9453.0 + 9453.0Y_10_chef_1;
1.0E_2_chef - 1.0E_10_chef >= 10.0 - 9453.0 + 9453.0Y_10_chef_2;
1.0E_3_chef - 1.0E_10_chef >= 7.0 - 9453.0 + 9453.0Y_10_chef_3;
1.0E_4_chef - 1.0E_10_chef >= 7.0 - 9453.0 + 9453.0Y_10_chef_4;
1.0E_7_chef - 1.0E_10_chef >= 5.0 - 9453.0 + 9453.0Y_10_chef_7;
1.0E_8_chef - 1.0E_10_chef >= 5.0 - 9453.0 + 9453.0Y_10_chef_8;
1.0E_9_chef - 1.0E_10_chef >= 10.0 - 9453.0 + 9453.0Y_10_chef_9;
1.0E_12_chef - 1.0E_10_chef >= 7.0 - 9453.0 + 9453.0Y_10_chef_12;
1.0E_13_chef - 1.0E_10_chef >= 7.0 - 9453.0 + 9453.0Y_10_chef_13;
1.0E_15_chef - 1.0E_10_chef >= 5.0 - 9453.0 + 9453.0Y_10_chef_15;
1.0E_5_ovensub1 - 1.0E_11_ovensub1 >= 3600.0X_11_ovensub1 - 9453.0 + 9453.0Y_11_ovensub1_5;
1.0E_5_ovensub2 - 1.0E_11_ovensub2 >= 3600.0X_11_ovensub2 - 9453.0 + 9453.0Y_11_ovensub2_5;
1.0E_6_ovensub1 - 1.0E_11_ovensub1 >= 1500.0X_11_ovensub1 - 9453.0 + 9453.0Y_11_ovensub1_6;
1.0E_6_ovensub2 - 1.0E_11_ovensub2 >= 1500.0X_11_ovensub2 - 9453.0 + 9453.0Y_11_ovensub2_6;
1.0E_14_hobsub1 - 1.0E_11_hobsub1 >= 600.0X_11_hobsub1 - 9453.0 + 9453.0Y_11_hobsub1_14;
1.0E_14_hobsub2 - 1.0E_11_hobsub2 >= 600.0X_11_hobsub2 - 9453.0 + 9453.0Y_11_hobsub2_14;
1.0E_14_ovensub1 - 1.0E_11_ovensub1 >= 600.0X_11_ovensub1 - 9453.0 + 9453.0Y_11_ovensub1_14;
1.0E_14_ovensub2 - 1.0E_11_ovensub2 >= 600.0X_11_ovensub2 - 9453.0 + 9453.0Y_11_ovensub2_14;
1.0E_0_chef - 1.0E_12_chef >= 10.0 - 9453.0 + 9453.0Y_12_chef_0;
1.0E_1_chef - 1.0E_12_chef >= 10.0 - 9453.0 + 9453.0Y_12_chef_1;
1.0E_2_chef - 1.0E_12_chef >= 10.0 - 9453.0 + 9453.0Y_12_chef_2;
1.0E_3_chef - 1.0E_12_chef >= 7.0 - 9453.0 + 9453.0Y_12_chef_3;
1.0E_4_chef - 1.0E_12_chef >= 7.0 - 9453.0 + 9453.0Y_12_chef_4;
1.0E_7_chef - 1.0E_12_chef >= 5.0 - 9453.0 + 9453.0Y_12_chef_7;
1.0E_8_chef - 1.0E_12_chef >= 5.0 - 9453.0 + 9453.0Y_12_chef_8;
1.0E_9_chef - 1.0E_12_chef >= 10.0 - 9453.0 + 9453.0Y_12_chef_9;
1.0E_10_chef - 1.0E_12_chef >= 10.0 - 9453.0 + 9453.0Y_12_chef_10;
1.0E_13_chef - 1.0E_12_chef >= 7.0 - 9453.0 + 9453.0Y_12_chef_13;
1.0E_15_chef - 1.0E_12_chef >= 5.0 - 9453.0 + 9453.0Y_12_chef_15;
1.0E_0_chef - 1.0E_13_chef >= 10.0 - 9453.0 + 9453.0Y_13_chef_0;
1.0E_1_chef - 1.0E_13_chef >= 10.0 - 9453.0 + 9453.0Y_13_chef_1;
1.0E_2_chef - 1.0E_13_chef >= 10.0 - 9453.0 + 9453.0Y_13_chef_2;
1.0E_3_chef - 1.0E_13_chef >= 7.0 - 9453.0 + 9453.0Y_13_chef_3;
1.0E_4_chef - 1.0E_13_chef >= 7.0 - 9453.0 + 9453.0Y_13_chef_4;
1.0E_7_chef - 1.0E_13_chef >= 5.0 - 9453.0 + 9453.0Y_13_chef_7;
1.0E_8_chef - 1.0E_13_chef >= 5.0 - 9453.0 + 9453.0Y_13_chef_8;
1.0E_9_chef - 1.0E_13_chef >= 10.0 - 9453.0 + 9453.0Y_13_chef_9;
1.0E_10_chef - 1.0E_13_chef >= 10.0 - 9453.0 + 9453.0Y_13_chef_10;
1.0E_12_chef - 1.0E_13_chef >= 7.0 - 9453.0 + 9453.0Y_13_chef_12;
1.0E_15_chef - 1.0E_13_chef >= 5.0 - 9453.0 + 9453.0Y_13_chef_15;
1.0E_5_ovensub1 - 1.0E_14_ovensub1 >= 3600.0X_14_ovensub1 - 9453.0 + 9453.0Y_14_ovensub1_5;
1.0E_5_ovensub2 - 1.0E_14_ovensub2 >= 3600.0X_14_ovensub2 - 9453.0 + 9453.0Y_14_ovensub2_5;
1.0E_6_ovensub1 - 1.0E_14_ovensub1 >= 1500.0X_14_ovensub1 - 9453.0 + 9453.0Y_14_ovensub1_6;
1.0E_6_ovensub2 - 1.0E_14_ovensub2 >= 1500.0X_14_ovensub2 - 9453.0 + 9453.0Y_14_ovensub2_6;
1.0E_11_hobsub1 - 1.0E_14_hobsub1 >= 60.0X_14_hobsub1 - 9453.0 + 9453.0Y_14_hobsub1_11;
1.0E_11_hobsub2 - 1.0E_14_hobsub2 >= 60.0X_14_hobsub2 - 9453.0 + 9453.0Y_14_hobsub2_11;
1.0E_11_ovensub1 - 1.0E_14_ovensub1 >= 60.0X_14_ovensub1 - 9453.0 + 9453.0Y_14_ovensub1_11;
1.0E_11_ovensub2 - 1.0E_14_ovensub2 >= 60.0X_14_ovensub2 - 9453.0 + 9453.0Y_14_ovensub2_11;
1.0E_0_chef - 1.0E_15_chef >= 10.0 - 9453.0 + 9453.0Y_15_chef_0;
1.0E_1_chef - 1.0E_15_chef >= 10.0 - 9453.0 + 9453.0Y_15_chef_1;
1.0E_2_chef - 1.0E_15_chef >= 10.0 - 9453.0 + 9453.0Y_15_chef_2;
1.0E_3_chef - 1.0E_15_chef >= 7.0 - 9453.0 + 9453.0Y_15_chef_3;
1.0E_4_chef - 1.0E_15_chef >= 7.0 - 9453.0 + 9453.0Y_15_chef_4;
1.0E_7_chef - 1.0E_15_chef >= 5.0 - 9453.0 + 9453.0Y_15_chef_7;
1.0E_8_chef - 1.0E_15_chef >= 5.0 - 9453.0 + 9453.0Y_15_chef_8;
1.0E_9_chef - 1.0E_15_chef >= 10.0 - 9453.0 + 9453.0Y_15_chef_9;
1.0E_10_chef - 1.0E_15_chef >= 10.0 - 9453.0 + 9453.0Y_15_chef_10;
1.0E_12_chef - 1.0E_15_chef >= 7.0 - 9453.0 + 9453.0Y_15_chef_12;
1.0E_13_chef - 1.0E_15_chef >= 7.0 - 9453.0 + 9453.0Y_15_chef_13;
bin X_5_ovensub1,X_5_ovensub2,X_6_ovensub1,X_6_ovensub2,X_11_hobsub1,X_11_hobsub2,X_11_ovensub1,X_11_ovensub2,X_14_hobsub1,X_14_hobsub2,X_14_ovensub1,X_14_ovensub2;
bin Y_0_chef_1,Y_0_chef_2,Y_0_chef_3,Y_0_chef_4,Y_0_chef_7,Y_0_chef_8,Y_0_chef_9,Y_0_chef_10,Y_0_chef_12,Y_0_chef_13,Y_0_chef_15,Y_1_chef_0,Y_1_chef_2,Y_1_chef_3,Y_1_chef_4,Y_1_chef_7,Y_1_chef_8,Y_1_chef_9,Y_1_chef_10,Y_1_chef_12,Y_1_chef_13,Y_1_chef_15,Y_2_chef_0,Y_2_chef_1,Y_2_chef_3,Y_2_chef_4,Y_2_chef_7,Y_2_chef_8,Y_2_chef_9,Y_2_chef_10,Y_2_chef_12,Y_2_chef_13,Y_2_chef_15,Y_3_chef_0,Y_3_chef_1,Y_3_chef_2,Y_3_chef_4,Y_3_chef_7,Y_3_chef_8,Y_3_chef_9,Y_3_chef_10,Y_3_chef_12,Y_3_chef_13,Y_3_chef_15,Y_4_chef_0,Y_4_chef_1,Y_4_chef_2,Y_4_chef_3,Y_4_chef_7,Y_4_chef_8,Y_4_chef_9,Y_4_chef_10,Y_4_chef_12,Y_4_chef_13,Y_4_chef_15,Y_5_ovensub1_6,Y_5_ovensub2_6,Y_5_ovensub1_11,Y_5_ovensub2_11,Y_5_ovensub1_14,Y_5_ovensub2_14,Y_6_ovensub1_5,Y_6_ovensub2_5,Y_6_ovensub1_11,Y_6_ovensub2_11,Y_6_ovensub1_14,Y_6_ovensub2_14,Y_7_chef_0,Y_7_chef_1,Y_7_chef_2,Y_7_chef_3,Y_7_chef_4,Y_7_chef_8,Y_7_chef_9,Y_7_chef_10,Y_7_chef_12,Y_7_chef_13,Y_7_chef_15,Y_8_chef_0,Y_8_chef_1,Y_8_chef_2,Y_8_chef_3,Y_8_chef_4,Y_8_chef_7,Y_8_chef_9,Y_8_chef_10,Y_8_chef_12,Y_8_chef_13,Y_8_chef_15,Y_9_chef_0,Y_9_chef_1,Y_9_chef_2,Y_9_chef_3,Y_9_chef_4,Y_9_chef_7,Y_9_chef_8,Y_9_chef_10,Y_9_chef_12,Y_9_chef_13,Y_9_chef_15,Y_10_chef_0,Y_10_chef_1,Y_10_chef_2,Y_10_chef_3,Y_10_chef_4,Y_10_chef_7,Y_10_chef_8,Y_10_chef_9,Y_10_chef_12,Y_10_chef_13,Y_10_chef_15,Y_11_ovensub1_5,Y_11_ovensub2_5,Y_11_ovensub1_6,Y_11_ovensub2_6,Y_11_hobsub1_14,Y_11_hobsub2_14,Y_11_ovensub1_14,Y_11_ovensub2_14,Y_12_chef_0,Y_12_chef_1,Y_12_chef_2,Y_12_chef_3,Y_12_chef_4,Y_12_chef_7,Y_12_chef_8,Y_12_chef_9,Y_12_chef_10,Y_12_chef_13,Y_12_chef_15,Y_13_chef_0,Y_13_chef_1,Y_13_chef_2,Y_13_chef_3,Y_13_chef_4,Y_13_chef_7,Y_13_chef_8,Y_13_chef_9,Y_13_chef_10,Y_13_chef_12,Y_13_chef_15,Y_14_ovensub1_5,Y_14_ovensub2_5,Y_14_ovensub1_6,Y_14_ovensub2_6,Y_14_hobsub1_11,Y_14_hobsub2_11,Y_14_ovensub1_11,Y_14_ovensub2_11,Y_15_chef_0,Y_15_chef_1,Y_15_chef_2,Y_15_chef_3,Y_15_chef_4,Y_15_chef_7,Y_15_chef_8,Y_15_chef_9,Y_15_chef_10,Y_15_chef_12,Y_15_chef_13;